
<<< setup


<<< generate

Version identifier: 12.10.0.0 | 2019-11-26 | 843d4de2ae
CPXPARAM_TimeLimit                               1200
Tried aggregator 3 times.
MIP Presolve eliminated 5183530 rows and 2950880 columns.
MIP Presolve modified 413882 coefficients.
Aggregator did 1392 substitutions.
Reduced MIP has 65728 rows, 66778 columns, and 406185 nonzeros.
Reduced MIP has 66729 binaries, 0 generals, 0 SOSs, and 0 indicators.
Presolve time = 7.03 sec. (4398.20 ticks)
Found incumbent of value 0.000000 after 10.92 sec. (5510.01 ticks)
Probing fixed 582 vars, tightened 0 bounds.
Probing time = 5.67 sec. (1087.72 ticks)
Cover probing fixed 0 vars, tightened 19 bounds.
Tried aggregator 2 times.
Detecting symmetries...
MIP Presolve eliminated 485 rows and 585 columns.
MIP Presolve modified 2794 coefficients.
Aggregator did 2 substitutions.
Reduced MIP has 65241 rows, 66191 columns, and 402739 nonzeros.
Reduced MIP has 66142 binaries, 0 generals, 0 SOSs, and 0 indicators.
Presolve time = 0.78 sec. (387.42 ticks)
Probing time = 0.16 sec. (25.95 ticks)
Clique table members: 229579.
MIP emphasis: balance optimality and feasibility.
MIP search method: dynamic search.
Parallel mode: deterministic, using up to 4 threads.
Root relaxation solution time = 7.22 sec. (4848.76 ticks)

        Nodes                                         Cuts/
   Node  Left     Objective  IInf  Best Integer    Best Bound    ItCnt     Gap

*     0+    0                            0.0000   105493.0000              --- 
      0     0   105493.0000   947        0.0000   105493.0000    12158     --- 
*     0+    0                         1635.0000   105493.0000              --- 
      0     0   105493.0000   947     1635.0000      Cuts: 34    12403     --- 
      0     0   105493.0000   947     1635.0000    Cuts: 1032    22875     --- 
      0     0   105493.0000   947     1635.0000     Cuts: 508    36976     --- 
*     0+    0                         3407.0000   105493.0000              --- 
Heuristic still looking.
      0     2   105493.0000   897     3407.0000   105493.0000    61530     --- 
Elapsed time = 383.17 sec. (253673.87 ticks, tree = 0.02 MB, solutions = 3)
      1     3   105493.0000   823     3407.0000   105493.0000    62222     --- 
      2     4   105493.0000   916     3407.0000   105493.0000    80489     --- 
      3     4   105493.0000  1036     3407.0000   105493.0000    83653     --- 
      4     3   105493.0000   813     3407.0000   105493.0000    90543     --- 
      5     7   105493.0000   950     3407.0000   105493.0000   152454     --- 
      6     5   105493.0000  1032     3407.0000   105493.0000    92648     --- 
      7     8   105493.0000   989     3407.0000   105493.0000   158768     --- 
      9    10   105493.0000  1068     3407.0000   105493.0000   168431     --- 
     10    11   105493.0000  1217     3407.0000   105493.0000   169555     --- 
     13     6   105493.0000   785     3407.0000   105493.0000   121107     --- 
Elapsed time = 486.13 sec. (302815.73 ticks, tree = 0.04 MB, solutions = 3)
     15    11   105493.0000   955     3407.0000   105493.0000   166139     --- 
     17    11   105493.0000   894     3407.0000   105493.0000   190386     --- 
     19    13   105493.0000   860     3407.0000   105493.0000   192609     --- 
     22    13   105493.0000   872     3407.0000   105493.0000   192657     --- 
     23    14   105493.0000  1022     3407.0000   105493.0000   193917     --- 
     25    13   105493.0000  1025     3407.0000   105493.0000   170141     --- 
     28    17   105493.0000  1052     3407.0000   105493.0000   211172     --- 
     33    18   105493.0000   994     3407.0000   105493.0000   208496     --- 
     39    19   105493.0000   930     3407.0000   105493.0000   208895     --- 
     47    20   105493.0000   915     3407.0000   105493.0000   209630     --- 
Elapsed time = 525.05 sec. (323333.55 ticks, tree = 1.42 MB, solutions = 3)
     48    18   103858.0000  1123     3407.0000   105493.0000   215383     --- 
     50    19   105493.0000  1108     3407.0000   105493.0000   222446     --- 
     53    21   105493.0000  1065     3407.0000   105493.0000   226984     --- 
     57    23   105493.0000  1014     3407.0000   105493.0000   229129     --- 
     61    35   105493.0000   944     3407.0000   105493.0000   254083     --- 
     70    36   105493.0000  1091     3407.0000   105493.0000   262283     --- 
     73    17   105493.0000   988     3407.0000   105493.0000   235031     --- 
     77    40   105493.0000   940     3407.0000   105493.0000   282197     --- 
     79    42   105493.0000   953     3407.0000   105493.0000   283663     --- 
     81    39   105493.0000   987     3407.0000   105493.0000   278053     --- 
Elapsed time = 556.08 sec. (337626.36 ticks, tree = 1.76 MB, solutions = 3)
     83    44   105493.0000  1045     3407.0000   105493.0000   287508     --- 
     86    26   105493.0000  1101     3407.0000   105493.0000   239839     --- 
     93    46   105493.0000   929     3407.0000   105493.0000   289981     --- 
     94    59   105493.0000  1174     3407.0000   105493.0000   356994     --- 
     99    67   105493.0000   974     3407.0000   105493.0000   357561     --- 
    103    68   105493.0000   969     3407.0000   105493.0000   359368     --- 
    107    65   105493.0000  1078     3407.0000   105493.0000   365506     --- 
    109    66   105493.0000  1132     3407.0000   105493.0000   368959     --- 
    117    72   105493.0000   934     3407.0000   105493.0000   370126     --- 
    125    82   105493.0000  1121     3407.0000   105493.0000   392983     --- 
Elapsed time = 587.38 sec. (351576.13 ticks, tree = 2.92 MB, solutions = 3)
    131    85   105493.0000  1101     3407.0000   105493.0000   395451     --- 
    133    73   105493.0000  1076     3407.0000   105493.0000   381253     --- 
    139    88   105493.0000  1055     3407.0000   105493.0000   402047     --- 
    141    76   105493.0000  1003     3407.0000   105493.0000   385980     --- 
    142    89   105493.0000  1142     3407.0000   105493.0000   408243     --- 
    147    92   105493.0000  1037     3407.0000   105493.0000   417107     --- 
    150    79   105493.0000  1047     3407.0000   105493.0000   392948     --- 
    152    78   105493.0000   950     3407.0000   105493.0000   382497     --- 
    155    92   105493.0000  1037     3407.0000   105493.0000   422534     --- 
    157   105   105493.0000   964     3407.0000   105493.0000   448777     --- 
Elapsed time = 632.16 sec. (371300.05 ticks, tree = 4.47 MB, solutions = 3)
    161   107   105493.0000  1003     3407.0000   105493.0000   453120     --- 
    166   110   105493.0000  1015     3407.0000   105493.0000   457441     --- 
    172   112   105493.0000   989     3407.0000   105493.0000   463366     --- 
    174   114   105493.0000  1002     3407.0000   105493.0000   468052     --- 
    176   116   105493.0000  1012     3407.0000   105493.0000   474055     --- 
    178   118   105493.0000   982     3407.0000   105493.0000   477267     --- 
    179   117    infeasible           3407.0000   105493.0000   483384     --- 
    180    98   105493.0000  1148     3407.0000   105493.0000   445146     --- 
    181   116    infeasible           3407.0000   105493.0000   484522     --- 
    182    93   105493.0000  1121     3407.0000   105493.0000   423454     --- 
Elapsed time = 742.70 sec. (398645.85 ticks, tree = 4.27 MB, solutions = 3)
    184   126   105493.0000   959     3407.0000   105493.0000   526206     --- 
    185   144   105493.0000  1029     3407.0000   105493.0000   579128     --- 
    188   147   105493.0000  1116     3407.0000   105493.0000   589926     --- 
    191   149   105493.0000  1137     3407.0000   105493.0000   602008     --- 
    193   143   105493.0000   912     3407.0000   105493.0000   574571     --- 
    196   153   105493.0000  1097     3407.0000   105493.0000   618142     --- 
    205   158   105493.0000  1071     3407.0000   105493.0000   625411     --- 
    207   160   105493.0000  1077     3407.0000   105493.0000   628653     --- 
    216   167   105493.0000  1008     3407.0000   105493.0000   632744     --- 
    219   147   105493.0000  1108     3407.0000   105493.0000   623090     --- 
Elapsed time = 817.77 sec. (424145.75 ticks, tree = 8.92 MB, solutions = 3)
    226   171   105493.0000   994     3407.0000   105493.0000   680839     --- 
    231   172   105493.0000  1035     3407.0000   105493.0000   685187     --- 
    237   173   105493.0000  1012     3407.0000   105493.0000   734363     --- 
    246   177   105493.0000   990     3407.0000   105493.0000   743304     --- 
    253   154   105493.0000  1020     3407.0000   105493.0000   644869     --- 
    257   180   105493.0000   977     3407.0000   105493.0000   749533     --- 
    262   157   105493.0000  1193     3407.0000   105493.0000   657316     --- 
    270   186   105493.0000   984     3407.0000   105493.0000   708582     --- 
    275   188   105493.0000  1520     3407.0000   105493.0000   716660     --- 
    283   190   105493.0000  1033     3407.0000   105493.0000   721650     --- 
Elapsed time = 848.11 sec. (437410.02 ticks, tree = 13.33 MB, solutions = 3)
    287   189   105493.0000   985     3407.0000   105493.0000   780713     --- 
    291   195   105493.0000   983     3407.0000   105493.0000   727347     --- 
    299   186   105493.0000  1058     3407.0000   105493.0000   798607     --- 
    303   199   105493.0000  1429     3407.0000   105493.0000   735063     --- 
    312   195   105493.0000   964     3407.0000   105493.0000   800195     --- 
    321   189   105493.0000   999     3407.0000   105493.0000   807264     --- 
    322   197   105493.0000  1001     3407.0000   105493.0000   808165     --- 
    326   204   105493.0000  1087     3407.0000   105493.0000   871093     --- 
    332   261   105493.0000  1015     3407.0000   105493.0000  1017304     --- 
    335   192   105493.0000   941     3407.0000   105493.0000   817813     --- 
Elapsed time = 879.53 sec. (448774.01 ticks, tree = 14.25 MB, solutions = 3)
    336   263   105493.0000  1005     3407.0000   105493.0000  1023750     --- 
    340   267   105493.0000   990     3407.0000   105493.0000  1032686     --- 
    346   196   105493.0000   980     3407.0000   105493.0000   826604     --- 
    350   273   105493.0000   994     3407.0000   105493.0000  1053237     --- 
    353   208   105493.0000  1076     3407.0000   105493.0000   897848     --- 
    354   236   105493.0000  1049     3407.0000   105493.0000   950490     --- 
    363   212   105493.0000  1034     3407.0000   105493.0000   904363     --- 
    366   275   105493.0000  1033     3407.0000   105493.0000  1064189     --- 
    374   279   105493.0000   971     3407.0000   105493.0000  1066448     --- 
    383   282   105493.0000   973     3407.0000   105493.0000  1077749     --- 
Elapsed time = 914.69 sec. (465234.01 ticks, tree = 20.88 MB, solutions = 3)
    399   269   105493.0000   936     3407.0000   105493.0000  1037378     --- 
    409   308   105493.0000  1241     3407.0000   105493.0000  1141733     --- 
    431   313   105493.0000   970     3407.0000   105493.0000  1173129     --- 
    450   324   105493.0000   990     3407.0000   105493.0000  1240766     --- 
    479   360   105493.0000   899     3407.0000   105493.0000  1282229     --- 
    491   333   105493.0000  1106     3407.0000   105493.0000  1272847     --- 
    503   372   105493.0000   901     3407.0000   105493.0000  1293596     --- 
    517   331   105493.0000   938     3407.0000   105493.0000  1250716     --- 
    540   399   105493.0000   985     3407.0000   105493.0000  1394877     --- 
    565   410   105493.0000  1049     3407.0000   105493.0000  1417023     --- 
Elapsed time = 1014.70 sec. (506861.85 ticks, tree = 30.74 MB, solutions = 3)
    583   415    infeasible           3407.0000   105493.0000  1439331     --- 
    593   422   105493.0000   882     3407.0000   105493.0000  1414516     --- 
    611   426   105493.0000   988     3407.0000   105493.0000  1464590     --- 
    618   458   105493.0000   962     3407.0000   105493.0000  1529144     --- 
    621   461   105493.0000   954     3407.0000   105493.0000  1539304     --- 
    637   449   105493.0000  1023     3407.0000   105493.0000  1539436     --- 
    645   478   105493.0000   902     3407.0000   105493.0000  1559207     --- 
    662   490   105493.0000   876     3407.0000   105493.0000  1569209     --- 
    678   455   105493.0000  1096     3407.0000   105493.0000  1566481     --- 
    696   531   105493.0000   828     3407.0000   105493.0000  1636506     --- 
Elapsed time = 1110.17 sec. (549471.91 ticks, tree = 42.19 MB, solutions = 3)
    713   509   105493.0000   852     3407.0000   105493.0000  1591696     --- 
    724   513   105493.0000   837     3407.0000   105493.0000  1597286     --- 
    736   593   105493.0000   829     3407.0000   105493.0000  1765801     --- 
    752   598   105493.0000   871     3407.0000   105493.0000  1772437     --- 
    767   564   105493.0000  1089     3407.0000   105493.0000  1756468     --- 
    783   615   105493.0000   772     3407.0000   105493.0000  1826744     --- 
Starting limited solution polishing.
    810   618   105493.0000   711     3407.0000   105493.0000  1795085     --- 
    832   662   105493.0000   702     3407.0000   105493.0000  1938354     --- 
    859   618   105493.0000   942     3407.0000   105493.0000  1891576     --- 
    887   688   105493.0000   638     3407.0000   105493.0000  1954097     --- 
Elapsed time = 1189.41 sec. (588919.16 ticks, tree = 51.75 MB, solutions = 3)
    913   699   105493.0000   854     3407.0000   105493.0000  2020816     --- 

Implied bound cuts applied:  406
Flow cuts applied:  6
Mixed integer rounding cuts applied:  3

Root node processing (before b&c):
  Real time             =  346.66 sec. (221703.65 ticks)
Parallel b&c, 4 threads:
  Real time             =  854.00 sec. (374754.86 ticks)
  Sync time (average)   =  127.76 sec.
  Wait time (average)   =    0.00 sec.
                          ------------
Total (root+branch&cut) = 1200.66 sec. (596458.51 ticks)

<<< solve


OBJECTIVE: 3407

<<< post process


<<< done

